K=5;
N=7;
P=[4 38 4 35 3];
R=[49 48 20 17 47];
A=[3 3 6 3 4];
C=[46 16 3 18 12];
M=[
	[0 36 23 27 9 19 34]
	[36 0 28 46 42 35 10]
	[23 28 0 23 12 20 11]
	[27 46 23 0 45 26 42]
	[9 42 12 45 0 33 34]
	[19 35 20 26 33 0 42]
	[34 10 11 42 34 42 0]
];